c "random instance"
p edges 150 3379
e 1 3
e 1 19
e 1 20
e 1 24
e 1 26
e 1 28
e 1 29
e 1 30
e 1 41
e 1 49
e 1 52
e 1 53
e 1 56
e 1 59
e 1 60
e 1 62
e 1 67
e 1 70
e 1 74
e 1 75
e 1 77
e 1 82
e 1 85
e 1 87
e 1 88
e 1 91
e 1 94
e 1 95
e 1 97
e 1 100
e 1 109
e 1 112
e 1 122
e 1 124
e 1 127
e 1 128
e 1 133
e 1 135
e 1 138
e 1 140
e 1 142
e 1 145
e 1 150
e 2 11
e 2 12
e 2 13
e 2 14
e 2 15
e 2 17
e 2 30
e 2 34
e 2 40
e 2 45
e 2 50
e 2 52
e 2 54
e 2 58
e 2 60
e 2 64
e 2 66
e 2 68
e 2 69
e 2 71
e 2 72
e 2 75
e 2 77
e 2 78
e 2 81
e 2 82
e 2 83
e 2 84
e 2 89
e 2 92
e 2 95
e 2 97
e 2 101
e 2 102
e 2 103
e 2 108
e 2 112
e 2 113
e 2 119
e 2 122
e 2 125
e 2 126
e 2 127
e 2 128
e 2 132
e 2 143
e 2 144
e 2 146
e 2 150
e 3 9
e 3 10
e 3 12
e 3 15
e 3 22
e 3 28
e 3 31
e 3 45
e 3 47
e 3 48
e 3 52
e 3 54
e 3 59
e 3 60
e 3 66
e 3 68
e 3 77
e 3 82
e 3 84
e 3 86
e 3 88
e 3 91
e 3 98
e 3 99
e 3 104
e 3 107
e 3 111
e 3 113
e 3 115
e 3 117
e 3 121
e 3 134
e 3 137
e 3 145
e 3 147
e 4 7
e 4 10
e 4 11
e 4 12
e 4 14
e 4 15
e 4 21
e 4 25
e 4 32
e 4 38
e 4 39
e 4 53
e 4 54
e 4 56
e 4 59
e 4 62
e 4 68
e 4 75
e 4 76
e 4 79
e 4 82
e 4 83
e 4 84
e 4 89
e 4 93
e 4 94
e 4 96
e 4 97
e 4 99
e 4 105
e 4 108
e 4 110
e 4 112
e 4 117
e 4 120
e 4 124
e 4 125
e 4 129
e 4 131
e 4 136
e 4 139
e 4 149
e 4 150
e 5 6
e 5 7
e 5 8
e 5 9
e 5 11
e 5 12
e 5 15
e 5 16
e 5 24
e 5 31
e 5 32
e 5 35
e 5 36
e 5 52
e 5 54
e 5 56
e 5 60
e 5 64
e 5 67
e 5 71
e 5 75
e 5 76
e 5 77
e 5 87
e 5 89
e 5 91
e 5 93
e 5 94
e 5 100
e 5 101
e 5 111
e 5 113
e 5 115
e 5 120
e 5 122
e 5 123
e 5 124
e 5 128
e 5 129
e 5 137
e 5 140
e 5 150
e 6 9
e 6 11
e 6 12
e 6 13
e 6 14
e 6 22
e 6 31
e 6 34
e 6 35
e 6 39
e 6 44
e 6 49
e 6 54
e 6 55
e 6 57
e 6 58
e 6 60
e 6 62
e 6 65
e 6 67
e 6 70
e 6 73
e 6 79
e 6 81
e 6 82
e 6 83
e 6 85
e 6 86
e 6 89
e 6 90
e 6 92
e 6 93
e 6 94
e 6 95
e 6 99
e 6 102
e 6 103
e 6 107
e 6 112
e 6 113
e 6 116
e 6 117
e 6 119
e 6 120
e 6 125
e 6 131
e 6 133
e 6 135
e 6 137
e 6 140
e 6 147
e 7 12
e 7 15
e 7 16
e 7 19
e 7 20
e 7 22
e 7 31
e 7 37
e 7 42
e 7 50
e 7 54
e 7 57
e 7 60
e 7 64
e 7 79
e 7 88
e 7 100
e 7 101
e 7 102
e 7 105
e 7 108
e 7 109
e 7 110
e 7 115
e 7 116
e 7 119
e 7 130
e 7 132
e 7 136
e 7 139
e 7 141
e 7 147
e 7 149
e 8 9
e 8 12
e 8 14
e 8 18
e 8 24
e 8 30
e 8 31
e 8 35
e 8 45
e 8 46
e 8 47
e 8 50
e 8 52
e 8 55
e 8 56
e 8 57
e 8 61
e 8 64
e 8 65
e 8 66
e 8 71
e 8 73
e 8 74
e 8 77
e 8 78
e 8 82
e 8 86
e 8 89
e 8 90
e 8 91
e 8 98
e 8 104
e 8 109
e 8 114
e 8 115
e 8 121
e 8 122
e 8 126
e 8 129
e 8 134
e 8 136
e 8 137
e 8 140
e 8 141
e 8 143
e 8 148
e 9 12
e 9 13
e 9 15
e 9 20
e 9 31
e 9 34
e 9 40
e 9 41
e 9 42
e 9 43
e 9 51
e 9 53
e 9 56
e 9 59
e 9 61
e 9 66
e 9 68
e 9 72
e 9 74
e 9 76
e 9 81
e 9 82
e 9 83
e 9 85
e 9 88
e 9 94
e 9 96
e 9 99
e 9 101
e 9 105
e 9 108
e 9 109
e 9 110
e 9 111
e 9 113
e 9 120
e 9 122
e 9 123
e 9 124
e 9 126
e 9 127
e 9 134
e 9 138
e 9 139
e 9 142
e 9 147
e 9 150
e 10 14
e 10 18
e 10 19
e 10 22
e 10 24
e 10 27
e 10 30
e 10 32
e 10 34
e 10 35
e 10 37
e 10 39
e 10 40
e 10 43
e 10 44
e 10 46
e 10 48
e 10 49
e 10 50
e 10 52
e 10 56
e 10 63
e 10 64
e 10 65
e 10 68
e 10 69
e 10 82
e 10 88
e 10 89
e 10 92
e 10 93
e 10 96
e 10 101
e 10 102
e 10 105
e 10 108
e 10 110
e 10 119
e 10 123
e 10 127
e 10 130
e 10 133
e 10 136
e 10 142
e 10 143
e 10 148
e 10 150
e 11 19
e 11 23
e 11 24
e 11 34
e 11 35
e 11 39
e 11 40
e 11 44
e 11 45
e 11 50
e 11 53
e 11 56
e 11 57
e 11 58
e 11 60
e 11 62
e 11 68
e 11 69
e 11 72
e 11 73
e 11 74
e 11 80
e 11 82
e 11 85
e 11 86
e 11 89
e 11 92
e 11 95
e 11 98
e 11 102
e 11 115
e 11 116
e 11 119
e 11 122
e 11 123
e 11 129
e 11 133
e 12 16
e 12 20
e 12 23
e 12 29
e 12 32
e 12 49
e 12 51
e 12 53
e 12 54
e 12 58
e 12 59
e 12 60
e 12 68
e 12 69
e 12 75
e 12 76
e 12 81
e 12 85
e 12 86
e 12 87
e 12 89
e 12 90
e 12 92
e 12 96
e 12 97
e 12 98
e 12 101
e 12 102
e 12 104
e 12 105
e 12 106
e 12 112
e 12 113
e 12 115
e 12 121
e 12 128
e 12 136
e 12 138
e 12 140
e 12 145
e 12 148
e 13 15
e 13 17
e 13 21
e 13 22
e 13 24
e 13 27
e 13 30
e 13 32
e 13 33
e 13 36
e 13 38
e 13 39
e 13 41
e 13 44
e 13 45
e 13 47
e 13 49
e 13 51
e 13 54
e 13 56
e 13 57
e 13 60
e 13 62
e 13 64
e 13 70
e 13 82
e 13 83
e 13 86
e 13 90
e 13 94
e 13 96
e 13 99
e 13 104
e 13 105
e 13 108
e 13 112
e 13 116
e 13 117
e 13 119
e 13 131
e 13 133
e 13 135
e 13 137
e 13 145
e 14 15
e 14 17
e 14 21
e 14 29
e 14 38
e 14 42
e 14 44
e 14 45
e 14 48
e 14 50
e 14 55
e 14 62
e 14 71
e 14 73
e 14 74
e 14 77
e 14 79
e 14 81
e 14 84
e 14 85
e 14 86
e 14 87
e 14 92
e 14 93
e 14 94
e 14 95
e 14 97
e 14 99
e 14 100
e 14 102
e 14 103
e 14 109
e 14 114
e 14 116
e 14 117
e 14 118
e 14 119
e 14 123
e 14 125
e 14 128
e 14 133
e 14 138
e 14 140
e 14 145
e 14 149
e 15 17
e 15 18
e 15 20
e 15 21
e 15 24
e 15 27
e 15 30
e 15 31
e 15 32
e 15 34
e 15 35
e 15 41
e 15 42
e 15 45
e 15 46
e 15 48
e 15 49
e 15 52
e 15 53
e 15 56
e 15 58
e 15 61
e 15 68
e 15 71
e 15 73
e 15 84
e 15 86
e 15 91
e 15 92
e 15 96
e 15 99
e 15 101
e 15 102
e 15 103
e 15 105
e 15 107
e 15 108
e 15 109
e 15 111
e 15 114
e 15 117
e 15 119
e 15 122
e 15 123
e 15 125
e 15 126
e 15 132
e 15 135
e 15 138
e 16 18
e 16 19
e 16 20
e 16 21
e 16 22
e 16 30
e 16 32
e 16 37
e 16 38
e 16 41
e 16 44
e 16 49
e 16 50
e 16 52
e 16 53
e 16 55
e 16 57
e 16 62
e 16 66
e 16 71
e 16 72
e 16 73
e 16 77
e 16 78
e 16 79
e 16 86
e 16 87
e 16 88
e 16 90
e 16 91
e 16 97
e 16 100
e 16 101
e 16 103
e 16 105
e 16 110
e 16 111
e 16 114
e 16 119
e 16 122
e 16 123
e 16 125
e 16 132
e 16 133
e 16 139
e 16 141
e 16 147
e 16 150
e 17 19
e 17 27
e 17 28
e 17 30
e 17 37
e 17 41
e 17 43
e 17 46
e 17 51
e 17 53
e 17 54
e 17 55
e 17 61
e 17 63
e 17 75
e 17 81
e 17 83
e 17 84
e 17 86
e 17 88
e 17 90
e 17 91
e 17 94
e 17 95
e 17 96
e 17 99
e 17 102
e 17 111
e 17 112
e 17 114
e 17 116
e 17 121
e 17 128
e 17 129
e 17 135
e 17 137
e 17 141
e 17 143
e 17 149
e 18 19
e 18 20
e 18 22
e 18 23
e 18 32
e 18 36
e 18 37
e 18 38
e 18 49
e 18 54
e 18 55
e 18 65
e 18 71
e 18 75
e 18 80
e 18 83
e 18 85
e 18 87
e 18 89
e 18 90
e 18 96
e 18 97
e 18 100
e 18 103
e 18 104
e 18 105
e 18 106
e 18 123
e 18 124
e 18 129
e 18 131
e 18 136
e 18 137
e 18 139
e 18 141
e 18 145
e 18 147
e 18 148
e 19 28
e 19 31
e 19 34
e 19 37
e 19 40
e 19 44
e 19 45
e 19 52
e 19 58
e 19 59
e 19 62
e 19 65
e 19 68
e 19 70
e 19 72
e 19 77
e 19 86
e 19 87
e 19 88
e 19 91
e 19 93
e 19 95
e 19 96
e 19 103
e 19 107
e 19 119
e 19 120
e 19 123
e 19 124
e 19 127
e 19 128
e 19 130
e 19 131
e 19 134
e 19 137
e 19 138
e 19 144
e 19 146
e 20 21
e 20 22
e 20 24
e 20 26
e 20 28
e 20 37
e 20 41
e 20 49
e 20 51
e 20 53
e 20 55
e 20 57
e 20 62
e 20 64
e 20 67
e 20 75
e 20 79
e 20 89
e 20 92
e 20 94
e 20 97
e 20 98
e 20 102
e 20 109
e 20 111
e 20 112
e 20 122
e 20 126
e 20 138
e 20 143
e 20 145
e 20 146
e 20 148
e 21 27
e 21 31
e 21 36
e 21 39
e 21 40
e 21 43
e 21 45
e 21 48
e 21 50
e 21 51
e 21 53
e 21 57
e 21 62
e 21 65
e 21 70
e 21 73
e 21 75
e 21 81
e 21 82
e 21 90
e 21 92
e 21 100
e 21 101
e 21 116
e 21 118
e 21 119
e 21 120
e 21 124
e 21 125
e 21 127
e 21 129
e 21 132
e 21 135
e 21 138
e 21 139
e 21 140
e 21 146
e 21 147
e 21 149
e 21 150
e 22 32
e 22 33
e 22 35
e 22 36
e 22 40
e 22 43
e 22 48
e 22 49
e 22 51
e 22 54
e 22 60
e 22 61
e 22 63
e 22 73
e 22 74
e 22 75
e 22 77
e 22 80
e 22 81
e 22 86
e 22 91
e 22 93
e 22 105
e 22 107
e 22 112
e 22 114
e 22 115
e 22 118
e 22 121
e 22 122
e 22 123
e 22 124
e 22 126
e 22 128
e 22 129
e 22 131
e 22 132
e 22 135
e 22 136
e 22 137
e 22 139
e 22 140
e 22 143
e 22 144
e 22 146
e 23 27
e 23 28
e 23 30
e 23 31
e 23 40
e 23 47
e 23 48
e 23 53
e 23 55
e 23 56
e 23 57
e 23 58
e 23 60
e 23 66
e 23 67
e 23 71
e 23 74
e 23 76
e 23 79
e 23 82
e 23 83
e 23 85
e 23 88
e 23 89
e 23 93
e 23 95
e 23 99
e 23 102
e 23 118
e 23 120
e 23 122
e 23 137
e 23 141
e 23 143
e 23 144
e 23 146
e 23 150
e 24 26
e 24 33
e 24 36
e 24 42
e 24 50
e 24 51
e 24 58
e 24 60
e 24 62
e 24 66
e 24 68
e 24 69
e 24 74
e 24 82
e 24 91
e 24 93
e 24 95
e 24 103
e 24 110
e 24 112
e 24 115
e 24 117
e 24 120
e 24 122
e 24 124
e 24 128
e 24 131
e 24 139
e 24 142
e 24 145
e 24 146
e 25 28
e 25 29
e 25 31
e 25 34
e 25 36
e 25 43
e 25 44
e 25 53
e 25 54
e 25 56
e 25 60
e 25 61
e 25 65
e 25 69
e 25 71
e 25 74
e 25 75
e 25 76
e 25 88
e 25 89
e 25 90
e 25 91
e 25 95
e 25 96
e 25 97
e 25 99
e 25 103
e 25 109
e 25 121
e 25 123
e 25 125
e 25 128
e 25 136
e 25 137
e 25 142
e 25 146
e 25 149
e 26 29
e 26 34
e 26 36
e 26 37
e 26 39
e 26 45
e 26 47
e 26 54
e 26 56
e 26 57
e 26 60
e 26 62
e 26 63
e 26 64
e 26 65
e 26 66
e 26 70
e 26 71
e 26 76
e 26 78
e 26 81
e 26 82
e 26 85
e 26 88
e 26 91
e 26 92
e 26 99
e 26 105
e 26 106
e 26 111
e 26 114
e 26 115
e 26 119
e 26 130
e 26 133
e 26 134
e 26 136
e 26 137
e 26 138
e 26 142
e 26 143
e 26 144
e 26 147
e 26 149
e 27 30
e 27 32
e 27 33
e 27 34
e 27 36
e 27 37
e 27 38
e 27 45
e 27 52
e 27 55
e 27 59
e 27 64
e 27 65
e 27 69
e 27 70
e 27 71
e 27 73
e 27 74
e 27 76
e 27 78
e 27 84
e 27 86
e 27 88
e 27 90
e 27 93
e 27 99
e 27 101
e 27 102
e 27 105
e 27 107
e 27 111
e 27 112
e 27 114
e 27 115
e 27 116
e 27 120
e 27 122
e 27 124
e 27 125
e 27 134
e 27 135
e 27 137
e 27 139
e 27 140
e 27 141
e 27 142
e 27 147
e 27 149
e 27 150
e 28 29
e 28 30
e 28 32
e 28 39
e 28 42
e 28 44
e 28 45
e 28 49
e 28 52
e 28 53
e 28 62
e 28 64
e 28 69
e 28 74
e 28 75
e 28 82
e 28 89
e 28 92
e 28 94
e 28 96
e 28 97
e 28 104
e 28 105
e 28 107
e 28 113
e 28 115
e 28 116
e 28 117
e 28 120
e 28 125
e 28 133
e 28 139
e 28 140
e 28 143
e 28 146
e 28 150
e 29 31
e 29 33
e 29 49
e 29 54
e 29 56
e 29 59
e 29 62
e 29 63
e 29 64
e 29 67
e 29 69
e 29 71
e 29 78
e 29 79
e 29 81
e 29 82
e 29 89
e 29 96
e 29 104
e 29 107
e 29 110
e 29 115
e 29 116
e 29 118
e 29 121
e 29 122
e 29 126
e 29 127
e 29 129
e 29 130
e 29 131
e 29 132
e 29 140
e 29 143
e 29 145
e 30 31
e 30 32
e 30 33
e 30 34
e 30 36
e 30 37
e 30 38
e 30 39
e 30 48
e 30 53
e 30 54
e 30 57
e 30 60
e 30 63
e 30 64
e 30 65
e 30 67
e 30 68
e 30 69
e 30 74
e 30 81
e 30 83
e 30 87
e 30 90
e 30 95
e 30 97
e 30 101
e 30 108
e 30 109
e 30 111
e 30 114
e 30 115
e 30 117
e 30 118
e 30 126
e 30 127
e 30 128
e 30 133
e 30 135
e 30 137
e 30 142
e 30 143
e 30 144
e 30 148
e 30 149
e 30 150
e 31 32
e 31 36
e 31 43
e 31 48
e 31 49
e 31 64
e 31 66
e 31 67
e 31 68
e 31 69
e 31 70
e 31 71
e 31 72
e 31 74
e 31 79
e 31 85
e 31 88
e 31 90
e 31 94
e 31 97
e 31 98
e 31 101
e 31 104
e 31 110
e 31 111
e 31 112
e 31 117
e 31 119
e 31 120
e 31 121
e 31 125
e 31 126
e 31 127
e 31 130
e 31 134
e 31 140
e 31 150
e 32 35
e 32 39
e 32 44
e 32 46
e 32 47
e 32 48
e 32 50
e 32 54
e 32 56
e 32 63
e 32 67
e 32 68
e 32 69
e 32 70
e 32 72
e 32 74
e 32 75
e 32 77
e 32 81
e 32 83
e 32 84
e 32 88
e 32 90
e 32 101
e 32 103
e 32 104
e 32 106
e 32 109
e 32 110
e 32 118
e 32 119
e 32 120
e 32 125
e 32 127
e 32 128
e 32 130
e 32 131
e 32 135
e 32 136
e 32 138
e 32 141
e 32 142
e 32 143
e 32 144
e 32 145
e 32 148
e 33 36
e 33 37
e 33 38
e 33 46
e 33 53
e 33 57
e 33 60
e 33 74
e 33 76
e 33 80
e 33 84
e 33 90
e 33 94
e 33 97
e 33 99
e 33 100
e 33 102
e 33 106
e 33 107
e 33 108
e 33 109
e 33 110
e 33 112
e 33 115
e 33 117
e 33 120
e 33 122
e 33 124
e 33 125
e 33 128
e 33 129
e 33 133
e 33 136
e 33 137
e 33 138
e 33 142
e 33 145
e 33 147
e 34 40
e 34 42
e 34 43
e 34 45
e 34 48
e 34 49
e 34 55
e 34 56
e 34 58
e 34 59
e 34 67
e 34 70
e 34 75
e 34 83
e 34 88
e 34 89
e 34 93
e 34 95
e 34 96
e 34 97
e 34 110
e 34 112
e 34 113
e 34 125
e 34 130
e 34 132
e 34 138
e 34 144
e 34 148
e 35 39
e 35 42
e 35 43
e 35 44
e 35 50
e 35 53
e 35 57
e 35 62
e 35 74
e 35 80
e 35 82
e 35 85
e 35 89
e 35 92
e 35 102
e 35 103
e 35 104
e 35 106
e 35 108
e 35 109
e 35 110
e 35 112
e 35 113
e 35 116
e 35 118
e 35 122
e 35 124
e 35 125
e 35 127
e 35 134
e 35 137
e 35 143
e 35 146
e 35 147
e 35 148
e 36 43
e 36 45
e 36 46
e 36 48
e 36 53
e 36 54
e 36 58
e 36 62
e 36 71
e 36 75
e 36 76
e 36 82
e 36 87
e 36 89
e 36 94
e 36 96
e 36 97
e 36 103
e 36 104
e 36 105
e 36 111
e 36 120
e 36 121
e 36 124
e 36 125
e 36 128
e 36 133
e 36 136
e 36 140
e 36 142
e 36 149
e 37 39
e 37 44
e 37 51
e 37 54
e 37 69
e 37 70
e 37 74
e 37 75
e 37 79
e 37 82
e 37 84
e 37 88
e 37 89
e 37 91
e 37 92
e 37 93
e 37 100
e 37 105
e 37 106
e 37 107
e 37 108
e 37 109
e 37 111
e 37 112
e 37 114
e 37 117
e 37 120
e 37 122
e 37 123
e 37 124
e 37 125
e 37 131
e 37 136
e 37 142
e 37 143
e 37 147
e 37 148
e 38 46
e 38 49
e 38 50
e 38 60
e 38 61
e 38 76
e 38 77
e 38 90
e 38 91
e 38 92
e 38 93
e 38 97
e 38 100
e 38 102
e 38 104
e 38 106
e 38 107
e 38 110
e 38 113
e 38 114
e 38 117
e 38 127
e 38 132
e 38 138
e 38 143
e 38 145
e 39 41
e 39 45
e 39 54
e 39 56
e 39 57
e 39 59
e 39 62
e 39 64
e 39 65
e 39 67
e 39 70
e 39 71
e 39 72
e 39 73
e 39 74
e 39 75
e 39 80
e 39 81
e 39 85
e 39 88
e 39 89
e 39 92
e 39 93
e 39 94
e 39 97
e 39 98
e 39 107
e 39 111
e 39 112
e 39 116
e 39 120
e 39 122
e 39 123
e 39 124
e 39 126
e 39 130
e 39 132
e 39 137
e 39 138
e 39 140
e 39 146
e 40 42
e 40 45
e 40 47
e 40 49
e 40 57
e 40 58
e 40 59
e 40 64
e 40 65
e 40 71
e 40 76
e 40 77
e 40 80
e 40 84
e 40 85
e 40 88
e 40 94
e 40 99
e 40 100
e 40 101
e 40 102
e 40 105
e 40 107
e 40 109
e 40 111
e 40 112
e 40 113
e 40 117
e 40 119
e 40 121
e 40 126
e 40 128
e 40 129
e 40 134
e 40 135
e 40 139
e 40 144
e 40 149
e 41 45
e 41 49
e 41 55
e 41 57
e 41 58
e 41 60
e 41 61
e 41 62
e 41 68
e 41 80
e 41 84
e 41 85
e 41 90
e 41 96
e 41 97
e 41 100
e 41 106
e 41 109
e 41 111
e 41 119
e 41 122
e 41 126
e 41 129
e 41 130
e 41 131
e 41 132
e 41 134
e 41 136
e 41 139
e 41 149
e 42 45
e 42 47
e 42 49
e 42 52
e 42 56
e 42 57
e 42 58
e 42 62
e 42 63
e 42 66
e 42 67
e 42 69
e 42 70
e 42 78
e 42 81
e 42 85
e 42 87
e 42 88
e 42 90
e 42 93
e 42 97
e 42 99
e 42 106
e 42 117
e 42 118
e 42 121
e 42 127
e 42 128
e 42 129
e 42 134
e 42 138
e 42 139
e 42 146
e 42 147
e 42 148
e 42 149
e 42 150
e 43 51
e 43 56
e 43 57
e 43 65
e 43 69
e 43 74
e 43 76
e 43 81
e 43 83
e 43 85
e 43 86
e 43 87
e 43 89
e 43 92
e 43 93
e 43 97
e 43 98
e 43 110
e 43 115
e 43 117
e 43 120
e 43 122
e 43 130
e 43 131
e 43 134
e 43 139
e 43 140
e 43 145
e 43 150
e 44 45
e 44 46
e 44 48
e 44 53
e 44 57
e 44 58
e 44 61
e 44 64
e 44 68
e 44 73
e 44 75
e 44 79
e 44 80
e 44 83
e 44 85
e 44 87
e 44 90
e 44 102
e 44 107
e 44 110
e 44 111
e 44 113
e 44 116
e 44 119
e 44 120
e 44 123
e 44 124
e 44 125
e 44 131
e 44 132
e 44 134
e 44 135
e 44 136
e 44 137
e 44 140
e 44 150
e 45 47
e 45 52
e 45 53
e 45 54
e 45 58
e 45 61
e 45 62
e 45 66
e 45 71
e 45 78
e 45 87
e 45 88
e 45 90
e 45 102
e 45 104
e 45 106
e 45 107
e 45 120
e 45 126
e 45 132
e 45 147
e 45 148
e 45 150
e 46 49
e 46 50
e 46 51
e 46 52
e 46 55
e 46 57
e 46 60
e 46 61
e 46 66
e 46 71
e 46 74
e 46 80
e 46 89
e 46 90
e 46 94
e 46 95
e 46 102
e 46 105
e 46 108
e 46 109
e 46 112
e 46 119
e 46 121
e 46 126
e 46 135
e 46 137
e 46 143
e 46 145
e 46 149
e 46 150
e 47 51
e 47 53
e 47 54
e 47 63
e 47 64
e 47 70
e 47 71
e 47 81
e 47 84
e 47 86
e 47 89
e 47 91
e 47 95
e 47 103
e 47 107
e 47 109
e 47 110
e 47 116
e 47 117
e 47 124
e 47 129
e 47 133
e 47 134
e 47 140
e 47 141
e 47 146
e 47 147
e 47 149
e 48 50
e 48 51
e 48 55
e 48 61
e 48 65
e 48 69
e 48 72
e 48 75
e 48 77
e 48 79
e 48 81
e 48 82
e 48 86
e 48 89
e 48 94
e 48 97
e 48 103
e 48 105
e 48 106
e 48 110
e 48 111
e 48 112
e 48 113
e 48 115
e 48 117
e 48 121
e 48 122
e 48 129
e 48 138
e 48 139
e 48 144
e 49 51
e 49 54
e 49 58
e 49 61
e 49 62
e 49 64
e 49 66
e 49 69
e 49 70
e 49 73
e 49 86
e 49 88
e 49 91
e 49 97
e 49 103
e 49 105
e 49 106
e 49 107
e 49 108
e 49 111
e 49 121
e 49 123
e 49 139
e 49 142
e 49 148
e 49 149
e 50 51
e 50 52
e 50 63
e 50 64
e 50 66
e 50 74
e 50 79
e 50 80
e 50 83
e 50 84
e 50 85
e 50 86
e 50 90
e 50 92
e 50 98
e 50 99
e 50 101
e 50 106
e 50 107
e 50 108
e 50 111
e 50 114
e 50 116
e 50 117
e 50 120
e 50 124
e 50 125
e 50 133
e 50 137
e 50 141
e 51 55
e 51 60
e 51 67
e 51 69
e 51 74
e 51 83
e 51 85
e 51 87
e 51 105
e 51 106
e 51 107
e 51 111
e 51 115
e 51 121
e 51 126
e 51 127
e 51 130
e 51 131
e 51 134
e 51 137
e 51 146
e 52 54
e 52 58
e 52 60
e 52 64
e 52 68
e 52 69
e 52 71
e 52 72
e 52 73
e 52 74
e 52 80
e 52 82
e 52 84
e 52 87
e 52 88
e 52 91
e 52 92
e 52 96
e 52 99
e 52 107
e 52 109
e 52 112
e 52 116
e 52 122
e 52 123
e 52 130
e 52 132
e 52 133
e 52 135
e 52 136
e 52 137
e 52 140
e 52 141
e 52 142
e 52 143
e 52 145
e 53 59
e 53 60
e 53 70
e 53 72
e 53 75
e 53 78
e 53 81
e 53 90
e 53 91
e 53 93
e 53 102
e 53 103
e 53 116
e 53 117
e 53 119
e 53 126
e 53 127
e 53 130
e 53 132
e 53 134
e 53 135
e 53 136
e 53 140
e 54 55
e 54 57
e 54 58
e 54 64
e 54 65
e 54 67
e 54 69
e 54 70
e 54 72
e 54 75
e 54 78
e 54 79
e 54 86
e 54 88
e 54 90
e 54 91
e 54 93
e 54 95
e 54 96
e 54 101
e 54 107
e 54 110
e 54 111
e 54 112
e 54 115
e 54 122
e 54 123
e 54 125
e 54 126
e 54 127
e 54 130
e 54 132
e 54 134
e 54 137
e 54 138
e 54 143
e 54 146
e 54 148
e 54 149
e 54 150
e 55 56
e 55 64
e 55 67
e 55 77
e 55 78
e 55 80
e 55 86
e 55 89
e 55 91
e 55 95
e 55 97
e 55 99
e 55 102
e 55 104
e 55 108
e 55 112
e 55 113
e 55 137
e 55 139
e 55 143
e 55 148
e 56 57
e 56 59
e 56 61
e 56 64
e 56 65
e 56 69
e 56 72
e 56 73
e 56 75
e 56 78
e 56 79
e 56 81
e 56 82
e 56 87
e 56 91
e 56 94
e 56 99
e 56 100
e 56 106
e 56 109
e 56 117
e 56 119
e 56 123
e 56 124
e 56 128
e 56 134
e 56 135
e 56 136
e 56 138
e 56 141
e 56 142
e 56 143
e 56 144
e 57 60
e 57 65
e 57 68
e 57 73
e 57 79
e 57 90
e 57 93
e 57 96
e 57 97
e 57 100
e 57 101
e 57 104
e 57 108
e 57 109
e 57 111
e 57 112
e 57 115
e 57 118
e 57 121
e 57 122
e 57 124
e 57 126
e 57 128
e 57 141
e 57 142
e 57 148
e 58 59
e 58 63
e 58 68
e 58 70
e 58 71
e 58 79
e 58 87
e 58 98
e 58 99
e 58 101
e 58 103
e 58 105
e 58 109
e 58 114
e 58 120
e 58 124
e 58 133
e 58 134
e 58 135
e 58 140
e 58 141
e 58 142
e 58 143
e 58 145
e 58 147
e 58 148
e 58 150
e 59 61
e 59 62
e 59 64
e 59 66
e 59 75
e 59 77
e 59 80
e 59 83
e 59 85
e 59 87
e 59 90
e 59 97
e 59 98
e 59 102
e 59 106
e 59 108
e 59 111
e 59 118
e 59 119
e 59 127
e 59 136
e 59 138
e 59 140
e 59 147
e 59 149
e 60 62
e 60 66
e 60 67
e 60 70
e 60 73
e 60 75
e 60 78
e 60 82
e 60 84
e 60 85
e 60 86
e 60 88
e 60 90
e 60 96
e 60 108
e 60 114
e 60 118
e 60 121
e 60 125
e 60 129
e 60 130
e 60 138
e 60 141
e 60 145
e 61 68
e 61 73
e 61 74
e 61 79
e 61 81
e 61 100
e 61 101
e 61 102
e 61 104
e 61 105
e 61 108
e 61 110
e 61 111
e 61 112
e 61 115
e 61 117
e 61 118
e 61 123
e 61 125
e 61 127
e 61 128
e 61 131
e 61 133
e 61 134
e 61 136
e 61 139
e 61 142
e 62 66
e 62 67
e 62 71
e 62 81
e 62 84
e 62 86
e 62 90
e 62 91
e 62 92
e 62 95
e 62 98
e 62 99
e 62 100
e 62 103
e 62 104
e 62 106
e 62 110
e 62 114
e 62 117
e 62 118
e 62 128
e 62 129
e 62 130
e 62 132
e 62 136
e 62 138
e 62 140
e 63 66
e 63 73
e 63 76
e 63 77
e 63 83
e 63 86
e 63 90
e 63 94
e 63 96
e 63 97
e 63 98
e 63 99
e 63 101
e 63 103
e 63 107
e 63 108
e 63 114
e 63 121
e 63 122
e 63 124
e 63 128
e 63 129
e 63 130
e 63 144
e 63 146
e 63 149
e 63 150
e 64 70
e 64 73
e 64 74
e 64 76
e 64 85
e 64 87
e 64 88
e 64 91
e 64 93
e 64 94
e 64 105
e 64 108
e 64 111
e 64 122
e 64 127
e 64 128
e 64 136
e 64 138
e 64 144
e 64 145
e 64 148
e 65 67
e 65 68
e 65 71
e 65 74
e 65 79
e 65 85
e 65 90
e 65 100
e 65 106
e 65 107
e 65 108
e 65 109
e 65 112
e 65 117
e 65 119
e 65 123
e 65 125
e 65 129
e 65 131
e 65 134
e 65 135
e 65 136
e 65 137
e 65 138
e 66 70
e 66 73
e 66 76
e 66 86
e 66 89
e 66 91
e 66 95
e 66 97
e 66 104
e 66 105
e 66 121
e 66 125
e 66 128
e 66 129
e 66 132
e 66 133
e 66 136
e 66 138
e 66 139
e 66 140
e 66 144
e 67 72
e 67 73
e 67 76
e 67 81
e 67 84
e 67 87
e 67 89
e 67 90
e 67 95
e 67 98
e 67 108
e 67 112
e 67 118
e 67 119
e 67 121
e 67 124
e 67 125
e 67 127
e 67 131
e 67 134
e 67 135
e 67 136
e 67 138
e 67 143
e 67 146
e 67 147
e 67 149
e 68 70
e 68 74
e 68 76
e 68 80
e 68 83
e 68 87
e 68 89
e 68 91
e 68 93
e 68 98
e 68 100
e 68 105
e 68 107
e 68 109
e 68 114
e 68 116
e 68 120
e 68 122
e 68 125
e 68 138
e 68 141
e 68 142
e 68 146
e 68 148
e 69 70
e 69 73
e 69 75
e 69 79
e 69 81
e 69 83
e 69 85
e 69 88
e 69 91
e 69 96
e 69 97
e 69 99
e 69 100
e 69 110
e 69 111
e 69 115
e 69 117
e 69 123
e 69 124
e 69 125
e 69 127
e 69 136
e 69 140
e 69 141
e 69 142
e 69 143
e 69 145
e 69 146
e 69 147
e 70 71
e 70 72
e 70 74
e 70 75
e 70 76
e 70 79
e 70 80
e 70 81
e 70 85
e 70 92
e 70 97
e 70 98
e 70 106
e 70 108
e 70 118
e 70 120
e 70 127
e 70 129
e 70 130
e 70 134
e 70 138
e 70 140
e 70 142
e 70 148
e 70 149
e 71 77
e 71 80
e 71 84
e 71 85
e 71 89
e 71 90
e 71 97
e 71 107
e 71 117
e 71 118
e 71 121
e 71 122
e 71 128
e 71 138
e 71 140
e 71 141
e 71 146
e 71 149
e 72 73
e 72 74
e 72 78
e 72 80
e 72 81
e 72 91
e 72 93
e 72 96
e 72 98
e 72 101
e 72 104
e 72 109
e 72 112
e 72 115
e 72 118
e 72 119
e 72 120
e 72 126
e 72 127
e 72 139
e 72 140
e 72 141
e 73 75
e 73 80
e 73 81
e 73 83
e 73 86
e 73 93
e 73 96
e 73 101
e 73 109
e 73 110
e 73 112
e 73 114
e 73 116
e 73 118
e 73 128
e 73 129
e 73 134
e 73 144
e 73 147
e 74 82
e 74 87
e 74 90
e 74 91
e 74 97
e 74 98
e 74 101
e 74 104
e 74 108
e 74 109
e 74 116
e 74 120
e 74 125
e 74 133
e 74 136
e 74 141
e 74 142
e 74 146
e 75 77
e 75 85
e 75 86
e 75 97
e 75 98
e 75 100
e 75 101
e 75 103
e 75 105
e 75 107
e 75 109
e 75 113
e 75 114
e 75 117
e 75 119
e 75 129
e 75 130
e 75 133
e 75 135
e 75 138
e 75 141
e 75 146
e 75 148
e 75 149
e 76 78
e 76 80
e 76 84
e 76 87
e 76 88
e 76 89
e 76 98
e 76 101
e 76 105
e 76 107
e 76 108
e 76 110
e 76 113
e 76 133
e 76 135
e 76 142
e 76 143
e 76 146
e 77 83
e 77 86
e 77 99
e 77 114
e 77 117
e 77 119
e 77 126
e 77 130
e 77 132
e 77 134
e 77 136
e 77 138
e 77 141
e 77 146
e 78 79
e 78 82
e 78 91
e 78 92
e 78 93
e 78 94
e 78 96
e 78 99
e 78 101
e 78 102
e 78 108
e 78 110
e 78 112
e 78 113
e 78 116
e 78 120
e 78 125
e 78 126
e 78 130
e 78 138
e 78 143
e 78 144
e 78 149
e 78 150
e 79 81
e 79 82
e 79 83
e 79 89
e 79 90
e 79 95
e 79 96
e 79 97
e 79 100
e 79 102
e 79 103
e 79 104
e 79 105
e 79 107
e 79 109
e 79 114
e 79 115
e 79 116
e 79 118
e 79 121
e 79 122
e 79 124
e 79 126
e 79 135
e 79 138
e 79 139
e 79 141
e 79 142
e 79 144
e 79 145
e 79 149
e 80 81
e 80 84
e 80 86
e 80 88
e 80 89
e 80 94
e 80 98
e 80 102
e 80 103
e 80 113
e 80 114
e 80 118
e 80 123
e 80 124
e 80 126
e 80 131
e 80 133
e 80 134
e 80 144
e 80 150
e 81 83
e 81 84
e 81 86
e 81 92
e 81 94
e 81 96
e 81 102
e 81 105
e 81 106
e 81 113
e 81 117
e 81 118
e 81 122
e 81 126
e 81 127
e 81 130
e 81 135
e 81 138
e 81 143
e 81 148
e 81 150
e 82 85
e 82 88
e 82 92
e 82 93
e 82 94
e 82 95
e 82 96
e 82 99
e 82 101
e 82 103
e 82 123
e 82 124
e 82 126
e 82 127
e 82 131
e 82 132
e 82 135
e 82 137
e 82 145
e 82 147
e 82 148
e 82 150
e 83 89
e 83 93
e 83 95
e 83 98
e 83 102
e 83 103
e 83 105
e 83 106
e 83 110
e 83 111
e 83 116
e 83 118
e 83 122
e 83 124
e 83 125
e 83 129
e 83 130
e 83 135
e 83 142
e 83 149
e 83 150
e 84 89
e 84 90
e 84 91
e 84 92
e 84 93
e 84 95
e 84 99
e 84 104
e 84 110
e 84 120
e 84 121
e 84 123
e 84 129
e 84 132
e 84 137
e 84 138
e 84 140
e 84 141
e 84 146
e 84 148
e 84 149
e 85 86
e 85 88
e 85 98
e 85 103
e 85 104
e 85 105
e 85 107
e 85 109
e 85 110
e 85 117
e 85 120
e 85 121
e 85 127
e 85 141
e 85 145
e 85 146
e 85 150
e 86 87
e 86 90
e 86 98
e 86 107
e 86 111
e 86 119
e 86 120
e 86 124
e 86 127
e 86 132
e 86 136
e 86 141
e 86 144
e 87 89
e 87 93
e 87 96
e 87 99
e 87 104
e 87 106
e 87 118
e 87 119
e 87 120
e 87 121
e 87 124
e 87 127
e 87 130
e 87 131
e 87 132
e 87 135
e 87 136
e 87 140
e 87 142
e 87 145
e 87 146
e 87 150
e 88 95
e 88 96
e 88 97
e 88 99
e 88 106
e 88 111
e 88 112
e 88 115
e 88 122
e 88 130
e 88 136
e 88 137
e 88 142
e 89 94
e 89 96
e 89 97
e 89 105
e 89 110
e 89 112
e 89 120
e 89 123
e 89 124
e 89 131
e 89 138
e 89 139
e 89 141
e 89 142
e 89 148
e 90 92
e 90 94
e 90 96
e 90 97
e 90 103
e 90 104
e 90 105
e 90 108
e 90 112
e 90 117
e 90 120
e 90 126
e 90 129
e 90 130
e 90 134
e 90 137
e 90 138
e 90 141
e 90 142
e 90 145
e 90 146
e 91 94
e 91 97
e 91 100
e 91 104
e 91 106
e 91 107
e 91 109
e 91 110
e 91 115
e 91 116
e 91 119
e 91 120
e 91 123
e 91 130
e 91 132
e 91 133
e 91 140
e 91 146
e 92 97
e 92 98
e 92 100
e 92 102
e 92 106
e 92 108
e 92 118
e 92 119
e 92 121
e 92 122
e 92 124
e 92 129
e 92 134
e 92 135
e 92 136
e 92 143
e 92 144
e 92 146
e 92 148
e 93 98
e 93 100
e 93 101
e 93 102
e 93 111
e 93 114
e 93 118
e 93 126
e 93 133
e 93 136
e 93 137
e 93 139
e 93 142
e 93 143
e 93 147
e 93 148
e 93 150
e 94 101
e 94 102
e 94 103
e 94 104
e 94 105
e 94 107
e 94 108
e 94 109
e 94 112
e 94 113
e 94 127
e 94 129
e 94 131
e 94 132
e 94 134
e 94 136
e 94 145
e 94 147
e 94 148
e 94 149
e 94 150
e 95 106
e 95 115
e 95 119
e 95 126
e 95 132
e 95 133
e 95 137
e 95 140
e 95 145
e 95 148
e 95 149
e 95 150
e 96 98
e 96 102
e 96 111
e 96 113
e 96 114
e 96 115
e 96 116
e 96 117
e 96 118
e 96 120
e 96 122
e 96 128
e 96 130
e 96 134
e 96 135
e 96 138
e 96 140
e 96 141
e 96 146
e 97 98
e 97 102
e 97 108
e 97 112
e 97 114
e 97 123
e 97 128
e 97 133
e 97 136
e 97 139
e 97 141
e 97 145
e 97 148
e 97 149
e 98 99
e 98 102
e 98 104
e 98 106
e 98 108
e 98 109
e 98 110
e 98 117
e 98 122
e 98 124
e 98 125
e 98 126
e 98 128
e 98 131
e 98 135
e 98 136
e 98 137
e 98 139
e 98 140
e 98 145
e 98 150
e 99 100
e 99 101
e 99 102
e 99 103
e 99 106
e 99 109
e 99 115
e 99 117
e 99 118
e 99 122
e 99 123
e 99 127
e 99 129
e 99 132
e 99 137
e 99 145
e 99 146
e 99 148
e 100 101
e 100 104
e 100 106
e 100 107
e 100 109
e 100 114
e 100 124
e 100 125
e 100 126
e 100 132
e 100 135
e 100 140
e 100 150
e 101 102
e 101 103
e 101 114
e 101 117
e 101 120
e 101 122
e 101 130
e 101 132
e 101 134
e 101 135
e 101 136
e 101 137
e 101 143
e 101 150
e 102 104
e 102 106
e 102 107
e 102 108
e 102 109
e 102 115
e 102 119
e 102 122
e 102 128
e 102 130
e 102 132
e 102 139
e 102 142
e 102 144
e 102 148
e 103 107
e 103 111
e 103 112
e 103 113
e 103 114
e 103 117
e 103 119
e 103 122
e 103 124
e 103 126
e 103 127
e 103 131
e 103 135
e 103 141
e 103 143
e 103 145
e 103 146
e 103 147
e 103 148
e 104 107
e 104 112
e 104 124
e 104 127
e 104 129
e 104 133
e 104 134
e 104 140
e 104 145
e 104 148
e 104 150
e 105 108
e 105 111
e 105 113
e 105 119
e 105 120
e 105 122
e 105 123
e 105 125
e 105 126
e 105 129
e 105 130
e 105 133
e 105 136
e 105 141
e 105 144
e 105 145
e 105 149
e 105 150
e 106 107
e 106 113
e 106 117
e 106 119
e 106 122
e 106 124
e 106 126
e 106 133
e 106 136
e 106 138
e 106 140
e 106 144
e 106 150
e 107 113
e 107 117
e 107 120
e 107 124
e 107 126
e 107 127
e 107 129
e 107 131
e 107 132
e 107 134
e 107 135
e 107 136
e 107 147
e 107 149
e 107 150
e 108 113
e 108 116
e 108 119
e 108 121
e 108 125
e 108 127
e 108 130
e 108 131
e 108 147
e 108 149
e 108 150
e 109 114
e 109 115
e 109 121
e 109 130
e 109 134
e 109 136
e 109 140
e 109 146
e 109 147
e 110 112
e 110 113
e 110 114
e 110 115
e 110 122
e 110 125
e 110 127
e 110 129
e 110 130
e 110 132
e 110 138
e 110 139
e 110 142
e 111 115
e 111 121
e 111 122
e 111 124
e 111 127
e 111 128
e 111 129
e 111 130
e 111 132
e 111 138
e 111 142
e 111 145
e 111 147
e 111 149
e 112 119
e 112 121
e 112 125
e 112 128
e 112 133
e 112 138
e 112 141
e 112 148
e 113 120
e 113 123
e 113 124
e 113 129
e 113 130
e 113 133
e 113 134
e 113 139
e 113 140
e 113 150
e 114 124
e 114 126
e 114 127
e 114 141
e 114 142
e 114 145
e 115 126
e 115 127
e 115 130
e 115 140
e 115 141
e 115 142
e 115 144
e 115 150
e 116 118
e 116 119
e 116 121
e 116 122
e 116 124
e 116 125
e 116 126
e 116 127
e 116 129
e 116 131
e 116 135
e 116 137
e 116 140
e 116 141
e 117 120
e 117 124
e 117 127
e 117 128
e 117 129
e 117 130
e 117 135
e 117 136
e 117 141
e 117 144
e 117 146
e 118 120
e 118 124
e 118 134
e 118 136
e 118 137
e 118 142
e 118 146
e 118 147
e 118 149
e 119 121
e 119 130
e 119 131
e 119 132
e 119 133
e 119 134
e 119 136
e 119 137
e 119 142
e 119 145
e 119 150
e 120 121
e 120 122
e 120 126
e 120 132
e 120 136
e 120 140
e 120 141
e 120 148
e 120 150
e 121 122
e 121 124
e 121 126
e 121 127
e 121 129
e 121 130
e 121 134
e 121 135
e 121 136
e 121 141
e 121 142
e 121 143
e 121 147
e 121 148
e 122 123
e 122 124
e 122 129
e 122 136
e 122 142
e 122 147
e 122 148
e 123 124
e 123 125
e 123 130
e 123 131
e 123 134
e 123 135
e 123 136
e 123 140
e 123 141
e 123 142
e 123 144
e 123 150
e 124 126
e 124 130
e 124 131
e 124 138
e 124 145
e 124 146
e 124 150
e 125 126
e 125 127
e 125 128
e 125 130
e 125 132
e 125 134
e 125 139
e 125 141
e 125 142
e 125 146
e 125 147
e 125 149
e 126 127
e 126 132
e 126 133
e 126 134
e 126 138
e 126 144
e 126 148
e 126 149
e 127 128
e 127 131
e 127 132
e 127 134
e 127 138
e 127 141
e 127 142
e 127 145
e 127 146
e 127 147
e 128 129
e 128 134
e 128 138
e 128 139
e 128 147
e 128 148
e 129 133
e 129 138
e 129 142
e 129 147
e 129 148
e 130 137
e 130 140
e 130 142
e 130 146
e 131 136
e 131 145
e 132 141
e 132 142
e 132 143
e 132 145
e 132 147
e 132 148
e 133 134
e 133 137
e 133 142
e 133 144
e 133 149
e 133 150
e 134 137
e 134 144
e 134 148
e 135 138
e 135 142
e 135 144
e 135 145
e 136 145
e 136 148
e 137 139
e 137 140
e 137 143
e 137 144
e 137 145
e 138 139
e 138 141
e 138 144
e 138 145
e 138 146
e 138 150
e 139 144
e 139 145
e 139 146
e 139 147
e 139 150
e 140 148
e 141 143
e 141 145
e 141 149
e 142 147
e 143 144
e 143 146
e 143 150
e 144 145
e 144 147
e 144 150
e 145 147
e 145 149
e 145 150
e 146 148
e 147 148
e 148 149
